33 500
7 146
9 161
2 118
11 177
10 110
3 169
11 171
2 174
10 190
8 163
11 163
9 186
5 164
11 186
11 169
9 171
3 118
6 158
7 152
11 177
3 158
11 137
3 152
4 146
4 174
2 137
10 190
4 164
6 152
9 110
11 161
5 17
3 152
